db/data/1736150741011227433674248982899422566.z3.out
-------------------
2500.105107832
